projected/problems_b25_r0_d7_m100_s666/_DIMACS/b25_d7_r0_s666_049.cnf
p cnf 255 452 25
c p show 1 2 3 4 5 6 7 8 9 10 11 12 13 14 15 16 17 18 19 20 21 22 23 24 25
-193 2 -3 0
-194 1 0
-194 14 0
-195 194 0
-195 193 0
-196 -2 0
-196 -23 0
-197 1 -9 0
-198 197 0
-198 196 0
-199 -1 0
-199 9 0
-200 2 23 0
-201 200 0
-201 199 0
-202 201 198 0
-203 202 0
-203 195 0
-204 -18 0
-204 11 0
-205 5 0
-205 16 0
-206 205 204 0
-207 -5 -16 0
-208 18 -11 0
-209 208 207 0
-210 209 0
-210 206 0
-211 -16 18 0
-212 -11 0
-212 3 0
-213 212 211 0
-214 213 0
-214 210 0
-215 214 0
-215 203 0
-216 20 -2 0
-217 2 -20 0
-218 217 0
-218 216 0
-219 3 0
-219 5 0
-220 219 0
-220 218 0
-221 -11 4 0
-222 -4 11 0
-223 222 0
-223 221 0
-224 4 0
-224 -16 0
-225 224 223 0
-226 225 220 0
-227 11 0
-227 -4 0
-228 4 0
-228 -11 0
-229 228 227 0
-230 -4 16 0
-231 230 0
-231 229 0
-232 -20 0
-232 2 0
-233 -2 0
-233 20 0
-234 233 232 0
-235 -3 -5 0
-236 235 234 0
-237 236 231 0
-238 237 0
-238 226 0
-239 25 -10 0
-240 -21 11 0
-241 240 0
-241 239 0
-242 14 -15 0
-243 -21 12 0
-244 243 0
-244 242 0
-245 244 0
-245 241 0
-246 245 238 0
-247 246 215 0
-248 20 -19 0
-249 6 0
-249 21 0
-250 249 248 0
-251 19 -24 0
-252 11 22 0
-253 252 0
-253 251 0
-254 253 0
-254 250 0
-255 11 -12 0
-26 8 0
-26 -10 0
-27 10 0
-27 -8 0
-145 27 26 0
-28 145 255 0
-156 -8 10 0
-29 -10 8 0
-167 29 0
-167 156 0
-173 -11 0
-173 12 0
-179 173 167 0
-185 179 0
-185 28 0
-30 -24 0
-30 -5 0
-31 5 0
-31 24 0
-32 31 30 0
-33 -22 -16 0
-34 33 32 0
-35 34 185 0
-36 35 254 0
-37 -21 13 0
-38 -23 0
-39 38 0
-39 37 0
-40 4 -10 0
-41 -15 -22 0
-42 41 40 0
-43 42 39 0
-44 21 13 0
-45 -2 -25 0
-46 45 0
-46 44 0
-47 -13 0
-47 17 0
-48 -20 -14 0
-49 48 0
-49 47 0
-50 49 46 0
-51 50 0
-51 43 0
-52 51 0
-52 36 0
-53 52 0
-53 247 0
-54 -9 2 0
-55 -19 3 0
-56 55 54 0
-57 -7 0
-57 -3 0
-58 14 -3 0
-59 58 0
-59 57 0
-60 59 0
-60 56 0
-61 -10 9 0
-62 -23 0
-62 7 0
-63 62 0
-63 61 0
-64 10 0
-64 -16 0
-65 21 0
-65 -22 0
-66 65 0
-66 64 0
-67 66 0
-67 63 0
-68 -10 16 0
-69 -21 22 0
-70 69 68 0
-71 10 0
-71 -9 0
-72 23 -7 0
-73 72 71 0
-74 73 0
-74 70 0
-75 74 67 0
-76 75 0
-76 60 0
-77 25 10 0
-78 24 -6 0
-79 78 0
-79 77 0
-80 -9 8 0
-81 -17 0
-81 -3 0
-82 81 80 0
-83 82 79 0
-84 14 -11 0
-85 84 54 0
-86 14 0
-86 -20 0
-87 20 0
-87 -14 0
-88 87 86 0
-89 22 0
-89 12 0
-90 89 88 0
-91 90 85 0
-92 91 0
-92 83 0
-93 92 76 0
-94 -11 -19 0
-95 -17 16 0
-96 95 94 0
-97 -16 15 0
-98 15 -20 0
-99 98 0
-99 97 0
-100 99 96 0
-101 -11 24 0
-102 -8 14 0
-103 102 101 0
-104 -14 -17 0
-105 22 -17 0
-106 105 104 0
-107 106 0
-107 103 0
-108 107 0
-108 100 0
-109 10 0
-109 24 0
-110 -17 0
-110 -14 0
-111 110 0
-111 109 0
-112 19 -4 0
-113 13 20 0
-114 113 112 0
-115 114 111 0
-116 -24 0
-116 -2 0
-117 11 5 0
-118 117 116 0
-119 25 0
-119 -17 0
-120 -9 -21 0
-121 120 0
-121 119 0
-122 121 118 0
-123 122 0
-123 115 0
-124 123 108 0
-125 124 93 0
-126 11 0
-126 19 0
-127 17 0
-127 -16 0
-128 127 0
-128 126 0
-129 16 0
-129 -15 0
-130 -15 0
-130 20 0
-131 130 129 0
-132 131 0
-132 128 0
-133 11 0
-133 -24 0
-134 8 0
-134 -14 0
-135 134 0
-135 133 0
-136 14 0
-136 17 0
-137 -22 0
-137 17 0
-138 137 0
-138 136 0
-139 138 135 0
-140 139 132 0
-141 -10 -24 0
-142 17 14 0
-143 142 141 0
-144 -19 0
-144 4 0
-146 -13 0
-146 -20 0
-147 146 0
-147 144 0
-148 147 0
-148 143 0
-149 24 2 0
-150 -11 0
-150 -5 0
-151 150 0
-151 149 0
-152 -25 17 0
-153 9 0
-153 21 0
-154 153 152 0
-155 154 0
-155 151 0
-157 155 148 0
-158 157 0
-158 140 0
-159 9 0
-159 -2 0
-160 19 0
-160 -3 0
-161 160 0
-161 159 0
-162 7 3 0
-163 -14 0
-163 3 0
-164 163 162 0
-165 164 161 0
-166 70 73 0
-168 63 66 0
-169 168 0
-169 166 0
-170 169 165 0
-171 -25 0
-171 -10 0
-172 -24 0
-172 6 0
-174 172 171 0
-175 9 0
-175 -8 0
-176 17 3 0
-177 176 0
-177 175 0
-178 177 0
-178 174 0
-180 -14 0
-180 11 0
-181 180 0
-181 159 0
-182 -14 20 0
-183 -20 14 0
-184 183 0
-184 182 0
-186 -22 -12 0
-187 186 0
-187 184 0
-188 187 0
-188 181 0
-189 188 178 0
-190 189 0
-190 170 0
-191 190 158 0
-192 191 0
-192 125 0
192 53 0
-199 -197 0
-197 -199 0
-200 -196 0
-207 -205 0
-204 -208 0
-223 -229 0
-229 -223 0
-230 -224 0
-231 -225 0
-218 -234 0
-234 -218 0
-219 -235 0
-235 -219 0
-236 -220 0
-220 -236 0
-167 -145 0
-173 -255 0
-255 -173 0
-126 -94 0
-127 -95 0
-128 -96 0
-96 -128 0
-97 -129 0
-129 -97 0
-130 -98 0
-131 -99 0
-99 -131 0
-100 -132 0
-101 -133 0
-133 -101 0
-102 -134 0
-134 -102 0
-135 -103 0
-136 -104 0
-137 -105 0
-138 -106 0
-139 -107 0
-107 -139 0
-108 -140 0
-141 -109 0
-109 -141 0
-142 -110 0
-110 -142 0
-111 -143 0
-144 -112 0
-113 -146 0
-146 -113 0
-147 -114 0
-114 -147 0
-115 -148 0
-148 -115 0
-149 -116 0
-116 -149 0
-150 -117 0
-117 -150 0
-118 -151 0
-119 -152 0
-152 -119 0
-153 -120 0
-154 -121 0
-121 -154 0
-122 -155 0
-155 -122 0
-157 -123 0
-123 -157 0
-124 -158 0
-158 -124 0
-54 -159 0
-160 -55 0
-55 -160 0
-56 -161 0
-161 -56 0
-57 -162 0
-163 -58 0
-58 -163 0
-59 -164 0
-164 -59 0
-165 -60 0
-60 -165 0
-68 -64 0
-64 -68 0
-65 -69 0
-66 -70 0
-61 -71 0
-62 -72 0
-63 -73 0
-73 -63 0
-169 -75 0
-75 -169 0
-76 -170 0
-77 -171 0
-78 -172 0
-79 -174 0
-174 -79 0
-80 -175 0
-175 -80 0
-176 -81 0
-177 -82 0
-178 -83 0
-159 -54 0
-180 -84 0
-84 -180 0
-85 -181 0
-181 -85 0
-184 -88 0
-186 -89 0
-187 -90 0
-188 -91 0
-189 -92 0
-92 -189 0
-93 -190 0
