projected/problems_b25_r0_d7_m100_s666/b25_d7_r0_s666_049.smt2
(set-logic QF_UF)
(declare-fun A0 () Bool)
(declare-fun A1 () Bool)
(declare-fun A2 () Bool)
(declare-fun A3 () Bool)
(declare-fun A4 () Bool)
(declare-fun A5 () Bool)
(declare-fun A6 () Bool)
(declare-fun A7 () Bool)
(declare-fun A8 () Bool)
(declare-fun A9 () Bool)
(declare-fun A10 () Bool)
(declare-fun A11 () Bool)
(declare-fun A12 () Bool)
(declare-fun A13 () Bool)
(declare-fun A14 () Bool)
(declare-fun A15 () Bool)
(declare-fun A16 () Bool)
(declare-fun A17 () Bool)
(declare-fun A18 () Bool)
(declare-fun A19 () Bool)
(declare-fun A20 () Bool)
(declare-fun A21 () Bool)
(declare-fun A22 () Bool)
(declare-fun A23 () Bool)
(declare-fun A24 () Bool)
(assert (let ((.def_0 (not A1))) (let ((.def_1 (and .def_0 A2))) (let ((.def_2 (not A13))) (let ((.def_3 (not A0))) (let ((.def_4 (or .def_3 .def_2))) (let ((.def_5 (or .def_4 .def_1))) (let ((.def_6 (and .def_3 A8))) (let ((.def_7 (not .def_6))) (let ((.def_8 (or A1 A22))) (let ((.def_9 (= .def_8 .def_7))) (let ((.def_10 (or .def_9 .def_5))) (let ((.def_11 (not A15))) (let ((.def_12 (not A4))) (let ((.def_13 (or .def_12 .def_11))) (let ((.def_14 (not A17))) (let ((.def_15 (and .def_14 A10))) (let ((.def_16 (= .def_15 .def_13))) (let ((.def_17 (or .def_11 A17))) (let ((.def_18 (not A2))) (let ((.def_19 (or A10 .def_18))) (let ((.def_20 (not .def_19))) (let ((.def_21 (or .def_20 .def_17))) (let ((.def_22 (and .def_21 .def_16))) (let ((.def_23 (not .def_22))) (let ((.def_24 (or .def_23 .def_10))) (let ((.def_25 (= A3 A10))) (let ((.def_26 (not .def_25))) (let ((.def_27 (not A3))) (let ((.def_28 (or .def_27 A15))) (let ((.def_29 (and .def_28 .def_26))) (let ((.def_30 (not A19))) (let ((.def_31 (= .def_0 .def_30))) (let ((.def_32 (not .def_31))) (let ((.def_33 (and A2 A4))) (let ((.def_34 (not .def_33))) (let ((.def_35 (or .def_34 .def_32))) (let ((.def_36 (not .def_35))) (let ((.def_37 (= .def_36 .def_29))) (let ((.def_38 (not .def_37))) (let ((.def_39 (not A24))) (let ((.def_40 (and .def_39 A9))) (let ((.def_41 (not A10))) (let ((.def_42 (and A20 .def_41))) (let ((.def_43 (or .def_42 .def_40))) (let ((.def_44 (not A14))) (let ((.def_45 (or A13 .def_44))) (let ((.def_46 (not .def_45))) (let ((.def_47 (not A11))) (let ((.def_48 (and A20 .def_47))) (let ((.def_49 (or .def_48 .def_46))) (let ((.def_50 (or .def_49 .def_43))) (let ((.def_51 (and .def_50 .def_38))) (let ((.def_52 (and .def_51 .def_24))) (let ((.def_53 (and .def_30 A18))) (let ((.def_54 (not .def_53))) (let ((.def_55 (and A5 A20))) (let ((.def_56 (or .def_55 .def_54))) (let ((.def_57 (not A23))) (let ((.def_58 (or A18 .def_57))) (let ((.def_59 (not .def_58))) (let ((.def_60 (or A10 A21))) (let ((.def_61 (not .def_60))) (let ((.def_62 (or .def_61 .def_59))) (let ((.def_63 (not .def_62))) (let ((.def_64 (and .def_63 .def_56))) (let ((.def_65 (= A9 A7))) (let ((.def_66 (and .def_41 A11))) (let ((.def_67 (not .def_66))) (let ((.def_68 (= .def_67 .def_65))) (let ((.def_69 (= A4 .def_57))) (let ((.def_70 (not .def_69))) (let ((.def_71 (not A21))) (let ((.def_72 (or .def_71 .def_11))) (let ((.def_73 (or .def_72 .def_70))) (let ((.def_74 (or .def_73 .def_68))) (let ((.def_75 (or .def_74 .def_64))) (let ((.def_76 (not A20))) (let ((.def_77 (or .def_76 A12))) (let ((.def_78 (not A22))) (let ((.def_79 (or .def_78 .def_78))) (let ((.def_80 (and .def_79 .def_77))) (let ((.def_81 (and .def_27 A9))) (let ((.def_82 (or .def_44 .def_71))) (let ((.def_83 (not .def_82))) (let ((.def_84 (and .def_83 .def_81))) (let ((.def_85 (not .def_84))) (let ((.def_86 (or .def_85 .def_80))) (let ((.def_87 (or A20 A12))) (let ((.def_88 (or .def_0 .def_39))) (let ((.def_89 (and .def_88 .def_87))) (let ((.def_90 (not A12))) (let ((.def_91 (and .def_90 A16))) (let ((.def_92 (not .def_91))) (let ((.def_93 (or .def_30 .def_2))) (let ((.def_94 (not .def_93))) (let ((.def_95 (or .def_94 .def_92))) (let ((.def_96 (not .def_95))) (let ((.def_97 (or .def_96 .def_89))) (let ((.def_98 (and .def_97 .def_86))) (let ((.def_99 (and .def_98 .def_75))) (let ((.def_100 (not .def_99))) (let ((.def_101 (or .def_100 .def_52))) (let ((.def_102 (not .def_101))) (let ((.def_103 (and A10 A18))) (let ((.def_104 (and A16 .def_11))) (let ((.def_105 (and .def_104 .def_103))) (let ((.def_106 (not .def_105))) (let ((.def_107 (or .def_11 A14))) (let ((.def_108 (not .def_107))) (let ((.def_109 (and .def_44 A19))) (let ((.def_110 (or .def_109 .def_108))) (let ((.def_111 (not .def_110))) (let ((.def_112 (or .def_111 .def_106))) (let ((.def_113 (or .def_41 A23))) (let ((.def_114 (not .def_113))) (let ((.def_115 (not A7))) (let ((.def_116 (or .def_115 A13))) (let ((.def_117 (not .def_116))) (let ((.def_118 (and .def_117 .def_114))) (let ((.def_119 (and A13 A16))) (let ((.def_120 (and .def_71 A16))) (let ((.def_121 (and .def_120 .def_119))) (let ((.def_122 (or .def_121 .def_118))) (let ((.def_123 (not .def_122))) (let ((.def_124 (and .def_123 .def_112))) (let ((.def_125 (not A9))) (let ((.def_126 (or .def_125 .def_57))) (let ((.def_127 (not .def_126))) (let ((.def_128 (or A16 A13))) (let ((.def_129 (not .def_128))) (let ((.def_130 (and .def_129 .def_127))) (let ((.def_131 (not A18))) (let ((.def_132 (and .def_131 A3))) (let ((.def_133 (or A12 A19))) (let ((.def_134 (not .def_133))) (let ((.def_135 (and .def_134 .def_132))) (let ((.def_136 (not .def_135))) (let ((.def_137 (or .def_136 .def_130))) (let ((.def_138 (not .def_137))) (let ((.def_139 (or A23 A1))) (let ((.def_140 (not .def_139))) (let ((.def_141 (and .def_41 .def_12))) (let ((.def_142 (not .def_141))) (let ((.def_143 (or .def_142 .def_140))) (let ((.def_144 (not A16))) (let ((.def_145 (and A24 .def_144))) (let ((.def_146 (not .def_145))) (let ((.def_147 (and A8 A20))) (let ((.def_148 (or .def_147 .def_146))) (let ((.def_149 (not .def_148))) (let ((.def_150 (or .def_149 .def_143))) (let ((.def_151 (not .def_150))) (let ((.def_152 (or .def_151 .def_138))) (let ((.def_153 (not .def_152))) (let ((.def_154 (or .def_153 .def_124))) (let ((.def_155 (not .def_154))) (let ((.def_156 (not A8))) (let ((.def_157 (or .def_156 A1))) (let ((.def_158 (and A18 .def_18))) (let ((.def_159 (not .def_158))) (let ((.def_160 (or .def_159 .def_157))) (let ((.def_161 (not .def_160))) (let ((.def_162 (not A6))) (let ((.def_163 (and .def_162 .def_18))) (let ((.def_164 (and .def_2 A2))) (let ((.def_165 (not .def_164))) (let ((.def_166 (and .def_165 .def_163))) (let ((.def_167 (not .def_166))) (let ((.def_168 (or .def_167 .def_161))) (let ((.def_169 (not .def_168))) (let ((.def_170 (or .def_125 A15))) (let ((.def_171 (not .def_170))) (let ((.def_172 (and A20 .def_71))) (let ((.def_173 (and .def_172 .def_171))) (let ((.def_174 (or .def_125 A8))) (let ((.def_175 (and .def_78 A6))) (let ((.def_176 (and .def_175 .def_174))) (let ((.def_177 (not .def_176))) (let ((.def_178 (= .def_177 .def_173))) (let ((.def_179 (not .def_178))) (let ((.def_180 (and .def_179 .def_169))) (let ((.def_181 (or A24 A9))) (let ((.def_182 (not A5))) (let ((.def_183 (or A23 .def_182))) (let ((.def_184 (and .def_183 .def_181))) (let ((.def_185 (not .def_184))) (let ((.def_186 (or .def_156 A7))) (let ((.def_187 (not .def_186))) (let ((.def_188 (or A16 A2))) (let ((.def_189 (and .def_188 .def_187))) (let ((.def_190 (and .def_189 .def_185))) (let ((.def_191 (and A8 .def_0))) (let ((.def_192 (not .def_191))) (let ((.def_193 (and .def_2 A10))) (let ((.def_194 (not .def_193))) (let ((.def_195 (or .def_194 .def_192))) (let ((.def_196 (not .def_195))) (let ((.def_197 (= A19 A13))) (let ((.def_198 (or .def_71 .def_47))) (let ((.def_199 (and .def_198 .def_197))) (let ((.def_200 (and .def_199 .def_196))) (let ((.def_201 (or .def_200 .def_190))) (let ((.def_202 (not .def_201))) (let ((.def_203 (or .def_202 .def_180))) (let ((.def_204 (= .def_203 .def_155))) (let ((.def_205 (or .def_204 .def_102))) .def_205)))))))))))))))))))))))))))))))))))))))))))))))))))))))))))))))))))))))))))))))))))))))))))))))))))))))))))))))))))))))))))))))))))))))))))))))))))))))))))))))))))))))))))))))))))))))))))))))))))))))))))))))
(check-sat)
